20180614 250 0 0 0
20170616 300 0 0 0
20160616 400 0 0 0
20150527 400 0 0 0
20140606 300 0 0 0
20130607 70 0 0 0
20110531 20 0 0 0
20100702 70 0 0 0
20090611 90 0 0 0
20080602 140 0 0 0
20070531 140 0 0 0
20060629 120 0 0 0
20060331 0 3300 0 0
20050622 130 0 0 0
20040715 100 0 0 0
20030618 130 0 0 0
20020604 220 0 0 0
20011011 0 5000 0 0
20010517 160 0 0 0
